(assert (forall ((pkt_0_4_6_0  Int  )(state_group_0_state_0_5_7_0  Int  )(state_group_0_state_1_6_8_0  Int  )) (let ((_n0 state_group_0_state_0_5_7_0 ))
(let ((_n1 2 ))
(let ((_n2 (ite (=  _n0  1)  _n1   _n0  ) ))
(let ((_n3 state_group_0_state_1_6_8_0 ))
(let ((_n4 false ))
(let ((_n5 (ite (=  _n0  1)  (ite  _n4  1 0)   _n3  ) ))
(let ((_n6 3 ))
(let ((_n7 (ite (=  _n5  999)  _n6   _n2  ) ))
(let ((_n8 (ite (=  _n2  2)  _n7   _n2  ) ))
(let ((_n9 (=   _n0   _n1 ) ))
(let ((_n10 true ))
(let ((_n11 (ite (=  _n0  2)  (ite  _n4  1 0)   _n0  ) ))
(let ((_n12 (=   _n11   (ite  _n10  1 0) ) ))
(let ((_n13 (ite (=  _n0  2)  _n4   _n12  ) ))
(let ((_n14 (not  _n13 ) ))
(let ((_n15 (or   _n14   _n9 ) ))
(let ((_n16 (ite  _n15   (ite  _n4  1 0)   _n0  ) ))
(let ((_n17 (<   _n16   _n1 ) ))
(let ((_n18 (ite  _n15   _n4   _n17  ) ))
(let ((_n19 (not  _n18 ) ))
(let ((_n20 (or   _n19   _n15 ) ))
(let ((_n21 (not  _n20 ) ))
(let ((_n22 (+   _n0   (ite  _n21  1 0) ) ))
(let ((_n23 (ite (=  (ite  _n18  1 0)  1)  _n22   _n0  ) ))
(let ((_n24 (ite (=  (ite  _n13  1 0)  1)  _n23   _n0  ) ))
(let ((_n25 999 ))
(let ((_n26 (ite (=  _n0  2)  _n3   (ite  _n4  1 0)  ) ))
(let ((_n27 (=   _n26   _n25 ) ))
(let ((_n28 (ite (=  _n0  2)  _n27   _n4  ) ))
(let ((_n29 (and   _n28   _n9 ) ))
(let ((_n30 (ite  _n29   _n1   (ite  _n4  1 0)  ) ))
(let ((_n31 (+   (ite  _n29  1 0)   _n30 ) ))
(let ((_n32 (ite  _n29   _n31   (ite  _n4  1 0)  ) ))
(let ((_n33 (ite  _n29   (ite  _n4  1 0)   _n0  ) ))
(let ((_n34 (+   _n33   _n32 ) ))
(let ((_n35 (ite (=  (ite  _n28  1 0)  1)  _n34   _n0  ) ))
(let ((_n36 (ite (=  (ite  _n9  1 0)  1)  _n35   _n24  ) ))
(let ((_n37 (=   _n36   _n8 ) ))
(let ((_n39 (+   _n5   (ite  _n10  1 0) ) ))
(let ((_n40 (ite (=  _n2  2)  _n39   _n5  ) ))
(let ((_n41 (or   _n18   _n15 ) ))
(let ((_n42 (not  _n41 ) ))
(let ((_n43 (+   _n3   (ite  _n42  1 0) ) ))
(let ((_n44 (ite  _n20   (ite  _n4  1 0)   _n1  ) ))
(let ((_n45 (-  _n44 )))
(let ((_n46 (ite  _n20   (ite  _n4  1 0)   _n6  ) ))
(let ((_n47 (+   _n46   _n45 ) ))
(let ((_n48 (ite  _n20   (ite  _n4  1 0)   _n47  ) ))
(let ((_n49 (ite  _n20   _n3   (ite  _n4  1 0)  ) ))
(let ((_n50 (+   _n49   _n48 ) ))
(let ((_n51 (ite (=  (ite  _n18  1 0)  1)  _n50   _n43  ) ))
(let ((_n52 (ite (=  (ite  _n13  1 0)  1)  _n51   _n3  ) ))
(let ((_n53 (not  _n9 ) ))
(let ((_n54 (or   _n28   _n53 ) ))
(let ((_n55 (ite  _n54   (ite  _n4  1 0)   _n1  ) ))
(let ((_n56 (-  _n55 )))
(let ((_n57 (ite  _n54   (ite  _n4  1 0)   _n6  ) ))
(let ((_n58 (+   _n57   _n56 ) ))
(let ((_n59 (ite  _n54   (ite  _n4  1 0)   _n58  ) ))
(let ((_n60 (+   _n3   _n59 ) ))
(let ((_n61 pkt_0_4_6_0 ))
(let ((_n62 (ite  _n29   _n61   (ite  _n4  1 0)  ) ))
(let ((_n63 1000 ))
(let ((_n64 (ite  _n29   _n63   (ite  _n4  1 0)  ) ))
(let ((_n65 (+   _n64   _n62 ) ))
(let ((_n66 (ite  _n29   _n65   (ite  _n4  1 0)  ) ))
(let ((_n67 (ite  _n29   (ite  _n4  1 0)   _n3  ) ))
(let ((_n68 (+   _n67   _n66 ) ))
(let ((_n69 (ite (=  (ite  _n28  1 0)  1)  _n68   _n60  ) ))
(let ((_n70 (ite (=  (ite  _n9  1 0)  1)  _n69   _n52  ) ))
(let ((_n71 (=   _n70   _n40 ) ))
(implies  (and (and (>= state_group_0_state_1_6_8_0 0) (< state_group_0_state_1_6_8_0 1024 ))  (and (and (>= state_group_0_state_0_5_7_0 0) (< state_group_0_state_0_5_7_0 1024 ))  (and (>= pkt_0_4_6_0 0) (< pkt_0_4_6_0 1024 )) ) )   (and  _n37  _n71 )  ))))))))))))))))))))))))))))))))))))))))))))))))))))))))))))))))))))))))))
(check-sat)
(get-model)
(exit)